c nombre: 21
c densidad: 0.3
p edges 20 69
e 1 4
e 1 5
e 1 6
e 1 8
e 1 12
e 1 16
e 1 18
e 1 19
e 2 3
e 2 4
e 2 5
e 2 6
e 2 8
e 2 11
e 2 12
e 2 20
e 3 13
e 3 15
e 3 18
e 3 19
e 4 5
e 4 6
e 4 9
e 4 10
e 4 11
e 4 16
e 5 6
e 5 9
e 5 11
e 5 13
e 5 16
e 5 18
e 5 19
e 5 20
e 6 7
e 6 8
e 6 9
e 6 12
e 6 14
e 6 19
e 7 9
e 7 10
e 7 11
e 7 13
e 7 14
e 7 17
e 7 18
e 7 20
e 8 13
e 8 17
e 8 19
e 9 13
e 9 18
e 9 20
e 10 11
e 10 14
e 10 15
e 10 19
e 12 13
e 12 15
e 13 19
e 14 15
e 14 16
e 14 17
e 14 18
e 15 16
e 16 18
e 17 20
e 19 20
